TYPE : Vertex Cover
DIMENSION: 34
EDGE_DATA_SECTION:
0 23
1 6
1 17
1 31
1 33
2 13
2 33
3 4
4 15
4 18
4 24
4 25
4 27
4 31
5 15
6 11
6 19
6 29
7 9
7 10
7 11
7 31
8 14
8 22
8 24
8 29
9 12
9 13
9 20
9 23
10 18
11 32
12 33
13 19
13 25
13 26
13 28
13 32
14 17
14 19
14 23
15 24
15 27
16 18
16 19
16 22
16 26
16 27
18 19
18 22
18 29
18 30
18 33
19 24
19 28
20 21
20 22
20 26
20 30
20 31
21 27
22 29
23 25
23 30
25 28
28 32
29 31
-1
VERTEX_DEGREE:
1.0 4.0 2.0 1.0 7.0 1.0 4.0 4.0 4.0 5.0 2.0 3.0 2.0 7.0 4.0 4.0 5.0 2.0 8.0 7.0 6.0 2.0 5.0 5.0 4.0 4.0 3.0 4.0 4.0 5.0 3.0 5.0 3.0 4.0
VERTEX_COVER:
1 4 7 8 9 11 13 14 15 16 18 19 20 21 23 28 29 33
EOF
